p wcnf 182 214 215 
1 6 -59 0 
1 40 67 0 
1 119 98 0 
1 -56 -27 0 
1 -133 16 0 
1 -20 -2 0 
1 -80 79 0 
1 -138 52 0 
1 -128 -83 0 
1 -154 51 0 
1 109 118 0 
1 167 -106 0 
1 75 158 0 
1 170 -32 0 
1 87 -173 0 
1 -160 -13 0 
1 -128 80 0 
1 -7 139 0 
1 102 -134 0 
1 -11 7 0 
1 165 -24 0 
1 -168 -163 0 
1 82 81 0 
1 -71 113 0 
1 -125 -167 0 
1 97 24 0 
1 14 55 0 
1 154 93 0 
1 101 155 0 
1 -165 -117 0 
1 135 72 0 
1 -19 -86 0 
1 -151 173 0 
1 -80 -168 0 
1 -19 121 0 
1 -129 100 0 
1 144 -112 0 
1 -45 -169 0 
1 108 69 0 
1 -54 -21 0 
1 7 137 0 
1 -107 51 0 
1 -109 -20 0 
1 116 71 0 
1 153 58 0 
1 -58 -123 0 
1 -144 17 0 
1 11 -108 0 
1 22 94 0 
1 172 -127 0 
1 159 11 0 
1 85 178 0 
1 140 -177 0 
1 61 164 0 
1 -142 113 0 
1 136 122 0 
1 172 125 0 
1 -84 -113 0 
1 -159 100 0 
1 162 62 0 
1 -113 -141 0 
1 -110 119 0 
1 118 -125 0 
1 13 -22 0 
1 28 -26 0 
1 115 20 0 
1 -116 -9 0 
1 36 -181 0 
1 -133 -78 0 
1 8 -178 0 
1 -4 -135 0 
1 -32 -29 0 
1 -43 117 0 
1 70 -65 0 
1 117 182 0 
1 155 138 0 
1 -171 140 0 
1 145 -15 0 
1 -39 -18 0 
1 46 -153 0 
1 -31 26 0 
1 174 -86 0 
1 -43 27 0 
1 -25 61 0 
1 19 121 0 
1 -8 -40 0 
1 -110 -162 0 
1 -168 -62 0 
1 84 -111 0 
1 105 -149 0 
1 109 -131 0 
1 -156 99 0 
1 89 -105 0 
1 -13 -130 0 
1 -52 -177 0 
1 156 -100 0 
1 -172 -26 0 
1 -78 128 0 
1 134 -20 0 
1 120 124 0 
1 19 26 0 
1 -93 181 0 
1 8 -12 0 
1 28 -87 0 
1 10 -72 0 
1 -81 -32 0 
1 -46 -92 0 
1 97 -79 0 
1 14 -70 0 
1 -144 -119 0 
1 -91 -149 0 
1 -114 -5 0 
1 87 176 0 
1 -19 -11 0 
1 179 139 0 
1 96 -17 0 
1 -48 -154 0 
1 -105 116 0 
1 29 9 0 
1 66 -82 0 
1 11 -180 0 
1 -70 62 0 
1 -9 -105 0 
1 -11 15 0 
1 53 -78 0 
1 171 -59 0 
1 -86 -12 0 
1 -67 9 0 
1 112 4 0 
1 -49 57 0 
1 67 -158 0 
1 -74 -139 0 
1 -36 54 0 
1 -138 179 0 
1 56 -131 0 
1 -145 -180 0 
1 -174 182 0 
1 96 26 0 
1 -70 -134 0 
1 -47 -3 0 
1 8 107 0 
1 19 181 0 
1 5 -163 0 
1 -120 -105 0 
1 180 159 0 
1 -180 2 0 
1 63 41 0 
1 -57 -146 0 
1 -94 135 0 
1 162 -130 0 
1 68 -54 0 
1 143 -70 0 
1 -77 181 0 
1 155 140 0 
1 135 -61 0 
1 136 152 0 
1 -1 -13 0 
1 14 -4 0 
1 -67 182 0 
1 -43 -18 0 
1 100 -78 0 
1 33 -93 0 
1 40 121 0 
1 -12 -77 0 
1 103 149 0 
1 -122 -26 0 
1 -49 5 0 
1 -88 162 0 
1 -177 132 0 
1 69 -22 0 
1 70 40 0 
1 -54 -162 0 
1 17 36 0 
1 -177 -179 0 
1 171 131 0 
1 13 -172 0 
1 -75 -165 0 
1 144 119 0 
1 -133 -143 0 
1 155 101 0 
1 -102 -98 0 
1 -22 -167 0 
1 -124 174 0 
1 -33 -15 0 
1 65 153 0 
1 14 -45 0 
1 1 -157 0 
1 -10 165 0 
1 -46 41 0 
1 -78 134 0 
1 -28 -149 0 
1 -73 179 0 
1 48 -38 0 
1 70 -153 0 
1 -1 45 0 
1 50 38 0 
1 -84 -122 0 
1 144 49 0 
1 -137 -118 0 
1 -142 182 0 
1 -140 -12 0 
1 98 106 0 
1 79 116 0 
1 28 -2 0 
1 46 -106 0 
1 34 141 0 
1 -38 -50 0 
1 -7 -73 0 
1 -162 28 0 
1 122 170 0 
1 -118 -103 0 
1 -99 -7 0 
1 -77 129 0 
1 163 -160 0 
